# Solution for model r10_t18_m4_9
# Finished Task: 12 / 18
# Makespan: 610.0, Total Distance: 731.0, Total Time: 0.0486
# R O S F
0 0 25 0.0 0.0
1 1 14 0.0 0.0
2 2 17 0.0 0.0
3 3 20 0.0 0.0
4 4 16 0.0 0.0
5 5 27 0.0 0.0
6 6 -1 0.0 0.0
7 7 -1 0.0 0.0
8 8 -1 0.0 0.0
9 9 -1 0.0 0.0
10 -1 -1 -1.0 -1.0
11 -1 -1 -1.0 -1.0
12 -1 -1 -1.0 -1.0
13 -1 -1 -1.0 -1.0
14 1 18 82.0 107.0
15 1 -1 521.0 552.0
16 4 22 214.0 252.0
17 2 24 427.0 462.0
18 1 15 442.0 476.0
19 -1 -1 -1.0 -1.0
20 3 26 476.0 515.0
21 -1 -1 -1.0 -1.0
22 4 23 298.0 324.0
23 4 -1 515.0 540.0
24 2 -1 576.0 610.0
25 0 -1 500.0 521.0
26 3 -1 552.0 576.0
27 5 -1 345.0 374.0
